# <MethodIndex> <ArgumentValue> <ReturnValue>
# 2 500 OptimisticLinkedQueue offer poll
Thread 0
0 -1 47
1 -1
0 -1 99
1 99
1 27
1 10
1 -1
0 -1 16
0 -1 80
1 16
0 -1 69
0 -1 24
1 2
1 22
1 24
1 61
0 -1 5
1 53
1 25
0 -1 8
1 4
1 48
1 8
0 -1 84
0 -1 51
0 -1 41
1 77
1 55
0 -1 85
1 93
1 32
0 -1 72
0 -1 70
0 -1 18
0 -1 46
0 -1 71
1 1
1 72
1 30
0 -1 59
1 46
0 -1 22
0 -1 61
1 2
0 -1 70
0 -1 71
1 59
0 -1 8
1 22
1 61
0 -1 65
0 -1 42
0 -1 38
1 62
0 -1 35
1 8
0 -1 73
1 65
1 42
0 -1 31
0 -1 89
0 -1 86
0 -1 44
0 -1 1
0 -1 36
0 -1 28
0 -1 5
1 35
0 -1 74
0 -1 97
0 -1 8
1 31
0 -1 81
1 89
1 86
0 -1 33
0 -1 32
0 -1 40
1 44
0 -1 67
1 2
1 36
0 -1 77
0 -1 21
0 -1 88
1 9
0 -1 1
0 -1 19
0 -1 20
0 -1 16
1 97
1 62
1 8
0 -1 69
1 81
1 37
1 7
1 80
0 -1 28
1 34
1 67
1 77
0 -1 15
1 88
0 -1 93
0 -1 90
0 -1 75
1 1
1 23
0 -1 7
1 20
0 -1 12
0 -1 63
1 16
1 48
1 69
1 56
0 -1 32
0 -1 61
1 94
1 15
1 15
0 -1 86
1 93
0 -1 38
1 37
0 -1 22
1 90
0 -1 19
1 75
1 7
0 -1 54
1 46
0 -1 21
0 -1 51
0 -1 8
1 54
0 -1 13
1 48
0 -1 21
0 -1 24
0 -1 20
1 8
0 -1 77
0 -1 34
0 -1 25
1 86
1 38
1 55
1 87
1 22
1 19
1 43
1 54
0 -1 17
1 94
0 -1 4
0 -1 85
0 -1 26
0 -1 55
0 -1 63
0 -1 96
1 51
0 -1 27
1 13
0 -1 43
0 -1 73
1 24
0 -1 5
1 86
1 53
0 -1 28
1 77
1 34
0 -1 55
0 -1 49
1 9
0 -1 67
1 4
0 -1 66
1 75
0 -1 9
0 -1 12
1 48
0 -1 81
1 55
1 63
0 -1 76
1 42
0 -1 49
0 -1 61
1 5
1 28
0 -1 47
0 -1 94
1 51
1 55
1 67
0 -1 75
0 -1 0
1 69
1 9
0 -1 45
0 -1 2
1 81
1 70
0 -1 90
1 49
1 21
1 47
0 -1 87
1 94
1 75
1 0
1 90
0 -1 28
1 2
1 84
1 87
1 87
1 47
1 79
0 -1 84
0 -1 27
0 -1 4
1 27
1 21
0 -1 37
0 -1 80
1 80
1 -1
0 -1 27
1 27
0 -1 34
0 -1 86
1 4
0 -1 89
0 -1 44
1 79
0 -1 66
1 31
1 89
0 -1 57
1 16
1 66
0 -1 87
0 -1 77
1 21
0 -1 66
0 -1 8
1 57
0 -1 39
0 -1 72
1 74
1 85
1 37
0 -1 87
1 66
1 24
1 8
1 84
1 39
1 72
1 77
1 84
1 87
0 -1 66
0 -1 5
0 -1 37
1 38
1 50
1 1
0 -1 60
1 41
1 83
0 -1 5
0 -1 45
1 5
0 -1 47
1 37
1 77
1 67
1 69
1 60
1 85
0 -1 4
0 -1 8
1 45
1 47
1 0
0 -1 60
0 -1 37
0 -1 3
0 -1 57
1 84
1 34
0 -1 7
0 -1 69
1 74
1 8
1 72
1 48
1 81
1 88
0 -1 6
1 12
0 -1 45
1 49
0 -1 96
0 -1 91
0 -1 62
1 69
0 -1 78
1 6
0 -1 62
0 -1 23
1 45
1 85
0 -1 89
0 -1 96
1 62
1 61
0 -1 64
0 -1 86
1 78
0 -1 7
1 54
1 62
1 58
1 89
0 -1 86
1 15
0 -1 91
0 -1 12
1 86
0 -1 73
0 -1 27
1 7
1 36
0 -1 92
1 53
1 86
0 -1 71
0 -1 26
1 63
0 -1 58
1 12
1 73
0 -1 31
0 -1 77
1 27
1 32
0 -1 81
1 92
1 7
0 -1 0
0 -1 14
0 -1 12
1 26
0 -1 10
1 88
0 -1 3
1 31
1 77
0 -1 13
1 81
1 97
1 14
0 -1 81
1 3
1 3
1 13
1 41
0 -1 7
1 81
1 7
1 49
0 -1 89
1 89
0 -1 83
1 -1
0 -1 62
0 -1 33
0 -1 72
1 44
0 -1 40
0 -1 30
0 -1 35
1 72
0 -1 75
1 40
0 -1 1
1 68
0 -1 3
1 30
1 35
1 75
0 -1 68
0 -1 10
0 -1 46
1 20
0 -1 7
0 -1 6
1 34
1 68
0 -1 78
1 10
0 -1 85
1 7
0 -1 12
0 -1 40
0 -1 26
1 3
0 -1 69
1 78
1 7
1 40
0 -1 16
1 69
1 26
0 -1 6
1 99
0 -1 55
1 9
1 27
1 55
0 -1 92
0 -1 0
1 -1
0 -1 43
1 43
1 33
1 0
0 -1 65
1 51
0 -1 72
0 -1 14
1 74
1 27
0 -1 98
0 -1 57
1 14
1 53
0 -1 24
0 -1 9
0 -1 66
1 57
1 24
1 9
0 -1 69
1 66
1 33
0 -1 84
1 71
0 -1 69
0 -1 20
0 -1 34
1 41
0 -1 91
0 -1 37
0 -1 47
1 20
0 -1 86
1 13
1 34
1 20
0 -1 0
1 91
0 -1 30
1 37
0 -1 85
0 -1 11
1 86
1 16
0 -1 34
0 -1 35
1 78
0 -1 16
1 0
1 96
0 -1 29
0 -1 24
1 30
0 -1 85
1 49
0 -1 14
0 -1 43
1 38
1 85
1 11
0 -1 79
1 27
0 -1 33
0 -1 61
0 -1 39
0 -1 62
1 34
0 -1 92
1 13
0 -1 55
Thread 1
1 -1
1 47
1 -1
0 -1 27
0 -1 10
1 -1
0 -1 32
1 32
0 -1 2
1 80
0 -1 22
0 -1 61
1 69
0 -1 53
0 -1 25
0 -1 4
0 -1 48
0 -1 16
0 -1 77
1 5
1 16
0 -1 55
0 -1 93
0 -1 32
0 -1 99
0 -1 30
0 -1 73
1 84
1 51
0 -1 1
0 -1 30
1 41
1 99
1 30
1 73
1 85
0 -1 2
0 -1 47
1 70
1 18
0 -1 63
1 71
0 -1 73
0 -1 30
1 47
0 -1 62
0 -1 60
1 63
0 -1 43
1 73
0 -1 73
1 30
1 70
0 -1 85
0 -1 29
1 71
1 60
1 43
1 73
0 -1 94
1 85
0 -1 18
0 -1 83
0 -1 68
0 -1 96
0 -1 2
1 38
1 29
0 -1 77
0 -1 9
1 73
0 -1 24
0 -1 62
1 94
0 -1 52
1 18
0 -1 37
1 83
0 -1 7
0 -1 80
0 -1 34
1 68
1 96
1 1
0 -1 6
1 28
1 77
1 5
0 -1 78
0 -1 69
0 -1 6
1 74
0 -1 23
1 24
0 -1 28
0 -1 50
0 -1 48
0 -1 38
1 52
0 -1 56
0 -1 21
1 33
0 -1 94
1 32
1 40
1 6
1 21
1 78
0 -1 15
0 -1 37
0 -1 87
1 69
1 6
1 19
0 -1 82
0 -1 46
0 -1 73
1 28
0 -1 54
1 50
1 38
0 -1 18
0 -1 48
0 -1 8
1 21
1 28
0 -1 63
0 -1 95
0 -1 67
0 -1 55
0 -1 87
0 -1 84
1 87
0 -1 45
1 82
0 -1 43
0 -1 94
1 73
0 -1 39
1 12
0 -1 30
1 63
1 18
0 -1 44
0 -1 27
0 -1 10
1 32
0 -1 86
0 -1 53
1 61
1 63
0 -1 49
1 95
1 67
0 -1 82
0 -1 7
1 84
1 45
0 -1 9
0 -1 85
0 -1 55
1 21
0 -1 75
0 -1 74
0 -1 48
0 -1 49
1 39
0 -1 60
1 30
1 8
0 -1 42
1 44
1 27
1 21
1 10
0 -1 73
1 20
0 -1 84
0 -1 16
0 -1 51
1 49
1 25
1 82
1 7
1 85
1 17
1 55
0 -1 88
0 -1 69
1 85
1 74
1 26
0 -1 82
0 -1 70
1 49
1 96
1 60
1 27
1 43
1 73
1 73
0 -1 21
1 84
0 -1 19
0 -1 90
1 16
0 -1 40
1 49
1 88
1 66
0 -1 18
0 -1 90
1 12
1 82
0 -1 98
0 -1 84
0 -1 87
1 76
1 61
1 19
1 90
0 -1 47
1 40
0 -1 36
1 18
0 -1 79
1 45
1 98
0 -1 62
1 90
0 -1 34
1 36
1 28
1 62
1 34
1 84
0 -1 21
1 4
1 -1
1 -1
1 -1
1 37
0 -1 95
1 95
1 -1
0 -1 4
0 -1 61
0 -1 79
0 -1 31
1 61
1 34
0 -1 16
0 -1 13
1 86
0 -1 83
0 -1 21
1 44
1 13
1 83
0 -1 74
0 -1 85
0 -1 37
0 -1 24
0 -1 84
1 87
0 -1 9
0 -1 77
1 77
0 -1 84
0 -1 90
0 -1 38
0 -1 50
0 -1 52
0 -1 1
1 9
0 -1 65
1 90
0 -1 41
0 -1 83
0 -1 75
0 -1 77
0 -1 67
1 52
0 -1 69
1 65
1 66
0 -1 85
0 -1 64
0 -1 19
1 75
0 -1 0
0 -1 84
0 -1 34
0 -1 81
0 -1 99
0 -1 74
1 5
1 64
1 19
0 -1 64
0 -1 72
0 -1 48
0 -1 81
0 -1 88
0 -1 12
0 -1 49
1 81
1 99
0 -1 66
1 4
1 64
1 60
1 37
1 3
1 57
0 -1 14
0 -1 40
0 -1 80
0 -1 85
1 7
0 -1 0
0 -1 61
1 66
0 -1 30
0 -1 54
1 14
1 40
0 -1 58
1 80
1 96
0 -1 34
1 91
1 0
0 -1 15
0 -1 48
0 -1 96
0 -1 27
1 30
0 -1 36
1 23
0 -1 53
1 34
1 96
1 64
1 48
0 -1 63
0 -1 71
1 96
0 -1 37
1 27
0 -1 32
0 -1 3
0 -1 85
0 -1 7
0 -1 13
1 91
0 -1 77
0 -1 88
1 71
0 -1 62
0 -1 70
1 37
0 -1 80
0 -1 24
1 3
1 85
1 71
0 -1 97
1 13
0 -1 96
0 -1 3
1 77
1 58
1 62
0 -1 12
1 70
1 80
1 24
0 -1 45
1 0
0 -1 41
0 -1 36
1 96
1 3
1 10
1 12
1 45
1 36
0 -1 15
0 -1 49
1 15
0 -1 36
1 36
1 -1
1 -1
1 -1
1 83
0 -1 44
1 62
0 -1 99
0 -1 68
1 33
0 -1 68
0 -1 61
1 99
0 -1 75
1 68
0 -1 20
0 -1 39
0 -1 90
1 61
0 -1 34
1 75
0 -1 70
0 -1 32
1 1
1 39
1 3
1 90
0 -1 11
0 -1 3
1 70
0 -1 47
1 32
1 46
0 -1 78
0 -1 7
1 6
0 -1 69
1 11
1 78
1 47
1 85
1 12
0 -1 99
0 -1 24
0 -1 9
0 -1 27
1 69
1 24
1 16
0 -1 20
1 6
1 20
1 -1
1 92
1 -1
1 0
1 -1
0 -1 33
0 -1 0
0 -1 51
0 -1 74
0 -1 27
1 65
0 -1 90
0 -1 53
0 -1 7
0 -1 74
1 72
1 90
0 -1 13
1 7
0 -1 1
1 98
1 74
1 13
0 -1 61
0 -1 33
1 1
1 61
0 -1 71
1 69
0 -1 41
0 -1 72
0 -1 13
1 84
0 -1 20
1 69
0 -1 70
0 -1 92
1 72
0 -1 66
0 -1 51
0 -1 16
0 -1 78
0 -1 96
1 70
0 -1 49
0 -1 38
1 92
1 47
1 66
1 51
0 -1 27
0 -1 13
0 -1 6
0 -1 8
0 -1 98
0 -1 25
